200
300
210
208
208
208
207
202
200
198
198
198
195
195
193
193
193
192
191
191
189
186
184
184
184
183
183
183
182
182
179
177
177
177
177
176
176
174
174
173
173
171
170
170
170
170
170
167
167
166
165
165
164
164
164
163
162
161
159
159
159
158
158
157
157
157
156
156
156
156
154
154
151
151
149
148
147
145
144
143
143
140
138
137
137
136
135
134
134
132
132
132
131
131
128
128
126
126
125
123
122
122
122
121
121
118
118
118
117
113
112
112
111
110
108
107
106
105
104
104
104
102
102
100
100
99
99
99
98
97
96
92
92
91
90
89
87
86
85
83
82
82
81
81
80
79
78
77
77
77
76
74
74
73
73
73
72
72
69
69
66
63
63
63
62
62
61
60
60
59
58
57
57
54
54
53
52
52
52
51
50
50
50
47
46
46
46
46
45
45
43
43
41
41
41
40
37
36
35
35
34
31
